6034
3664
549
3420
7738
3282
851
9170
9429
8306
3811
8967
5120
2626
4490
3209
5462
6989
9083
5269
1298
2264
5676
5275
8232
7681
2862
7605
2259
8295
9491
5226
4053
2017
9397
5746
8358
4022
1143
4535
6039
9681
2997
3323
6238
2710
4728
5870
7365
2526
